c NeuroCodeBench 2.0 CNF formula with verdict Unsat
p cnf 100 103
1 -32 9 -31 0
1 32 81 -64 56 -21 0
-1 -97 76 -34 85 73 0
-1 -97 -76 -78 -48 -27 -22 -43 -11 0
-1 97 -60 8 -33 0
-1 -97 -76 -78 48 -74 35 -54 71 0
-1 97 60 83 -81 -75 -20 23 38 0
1 -32 9 31 64 -42 0
-1 97 60 83 -81 -75 20 37 -58 -25 -64 0
-1 97 60 83 -81 -75 20 37 -58 -25 64 -28 0
-1 97 60 83 81 99 -29 0
-1 -97 -76 78 -47 -11 0
-1 97 -60 -8 90 58 0
1 32 81 -64 -56 29 0
-1 97 60 83 -81 -75 -20 -23 -56 22 34 -28 0
-1 97 60 83 -81 75 -91 -54 0
-1 -97 -76 -78 -48 -27 -22 -43 11 -2 66 49 0
-1 -97 -76 78 47 77 -25 0
-1 97 60 83 -81 -75 20 -37 0
-1 -97 -76 -78 48 -74 35 -54 -71 0
1 32 -81 -53 -56 0
1 -32 -9 45 -63 0
-1 -97 76 34 17 60 12 0
1 32 81 64 13 0
1 -32 9 31 -64 0
-1 -97 -76 -78 -48 -27 22 88 -33 -36 -58 0
-1 -97 -76 78 47 77 25 62 0
-1 -97 -76 78 47 -77 -30 -59 0
-1 97 60 -83 23 28 0
-1 97 60 -83 -23 40 0
-1 97 60 83 -81 75 -91 54 78 -26 0
1 32 -81 53 56 0
-1 -97 76 -34 85 -73 -75 3 0
-1 97 60 83 -81 75 91 0
-1 97 60 83 81 -99 66 0
-1 -97 -76 -78 48 -74 35 54 0
1 32 -81 -53 56 0
-1 -97 -76 -78 -48 -27 -22 -43 11 -2 -66 0
-1 97 60 83 -81 -75 -20 23 -38 0
-1 -97 76 -34 85 -73 75 66 0
-1 -97 -76 78 -47 11 0
-1 97 60 -83 -23 -40 0
-1 -97 -76 -78 -48 -27 22 88 -33 36 0
-1 97 60 83 -81 -75 -20 -23 56 0
-1 -97 -76 -78 48 -74 -35 -15 0
-1 -97 76 34 -17 0
-1 97 60 83 -81 75 -91 54 -78 0
-1 -97 -76 -78 -48 27 -49 -80 0
-1 -97 -76 -78 48 -74 -35 15 0
-1 97 -60 -8 -90 -50 -16 -35 0
-1 -97 -76 78 47 77 25 -62 0
-1 97 60 83 -81 -75 -20 -23 -56 -22 13 0
-1 -97 -76 -78 48 74 -32 0
1 32 -81 53 -56 63 0
-1 -97 -76 -78 48 74 32 0
-1 -97 76 -34 -85 46 -96 0
-1 -97 76 -34 -85 46 96 0
1 -32 9 31 64 42 0
-1 -97 -76 -78 -48 -27 22 88 -33 -36 58 0
1 32 -81 53 -56 -63 0
-1 97 -60 -8 -90 50 -46 -96 0
-1 97 60 83 -81 75 -91 54 78 26 0
-1 -97 -76 -78 -48 27 -49 80 0
-1 97 -60 -8 -90 50 -46 96 0
-1 97 60 83 -81 -75 -20 -23 -56 22 34 28 0
1 32 81 -64 56 21 0
1 32 81 64 -13 0
-1 -97 76 -34 -85 -46 93 0
1 32 81 -64 -56 -29 0
-1 97 -60 -8 -90 -50 -16 35 0
-1 -97 76 -34 85 -73 75 -66 -42 0
-1 -97 -76 78 47 -77 30 0
-1 97 60 83 81 -99 -66 -96 0
-1 -97 -76 -78 -48 -27 22 88 33 0
-1 -97 -76 -78 -48 -27 -22 -43 11 2 0
-1 -97 76 34 17 60 -12 0
1 -32 -9 -45 0
-1 97 -60 8 33 -27 0
-1 97 60 83 81 -99 -66 96 49 0
-1 97 -60 -8 -90 50 46 21 0
-1 97 60 83 -81 -75 20 37 58 0
-1 -97 -76 -78 -48 -27 22 -88 0
-1 -97 76 34 17 -60 0
-1 97 60 83 81 99 29 -67 0
-1 97 60 83 81 -99 -66 96 -49 0
-1 97 60 83 -81 -75 20 37 -58 25 0
-1 97 60 83 -81 -75 20 37 -58 -25 64 28 0
-1 -97 76 -34 85 -73 75 -66 42 0
-1 -97 -76 -78 -48 -27 -22 43 0
-1 97 60 83 -81 -75 -20 -23 -56 -22 -13 0
-1 -97 -76 78 47 -77 -30 59 0
-1 97 60 -83 23 -28 0
-1 -97 76 -34 -85 -46 -93 0
1 -32 -9 45 63 0
-1 97 -60 -8 90 -58 0
-1 97 -60 -8 -90 50 46 -21 0
-1 -97 -76 -78 -48 -27 -22 -43 11 -2 66 -49 0
-1 97 -60 -8 -90 -50 16 0
-1 -97 -76 -78 -48 27 49 0
-1 -97 76 -34 85 -73 -75 -3 0
-1 97 60 83 81 99 29 67 0
-1 97 60 83 -81 -75 -20 -23 -56 22 -34 0
-1 97 -60 8 33 27 0
